p cnf 7230 16
-606 -1946 2119 0
2126 2127 0
1574 -2127 0
-1574 -2126 0
2124 2125 0
1572 -2125 0
-1572 -2124 0
2122 2123 0
1568 -2123 0
-1568 -2122 0
2120 2121 0
1566 -2121 0
-1566 -2120 0
1956 -2129 0
-2118 -2119 0
2118 2119 0
